27
14
0 15 16 17 18 20 24 25 26
1 14 15 16 19 20 21 25 26
2 15 16 17 18 24 25 26
3 15 16 17 20 24 26
4 22 24 25 26
5 15 16 18 19
6 14 16 18 20 21 24
7 15 18 20 21 23 24 25 26
8 14 16 17 18 20 25 26
9 14 17 18 22 23
10 15 18 19 25
11
12 25
13 16
